\ Model Relaxed master problem
\ LP format - for model browsing. Use MPS format to capture full model detail.
Minimize
  11.65685424949238 x_0_0 + 8.464101615137753 x_0_1
   + 8.464101615137753 x_0_2 + 8.464101615137753 x_0_3
   + 8.464101615137753 x_0_4 + 8.464101615137753 x_0_5
   + 8.464101615137753 x_0_6 + 8.464101615137753 x_0_7
   + 8.464101615137753 x_0_8 + 8.464101615137753 x_0_9
   + 11.65685424949238 x_1_0 + 9 x_1_1 + 11.65685424949238 x_1_2 + 9 x_1_3
   + 11.65685424949238 x_1_4 + 9 x_1_5 + 9 x_1_6 + 11.65685424949238 x_1_7
   + 9 x_1_8 + 9 x_1_9
Subject To
 flow_balance_for_OD-0: x_0_0 + x_0_1 + x_0_2 + x_0_3 + x_0_4 + x_0_5
   + x_0_6 + x_0_7 + x_0_8 + x_0_9 = 1
 flow_balance_for_OD-1: x_1_0 + x_1_1 + x_1_2 + x_1_3 + x_1_4 + x_1_5
   + x_1_6 + x_1_7 + x_1_8 + x_1_9 = 1
 flow_balance_for_construction: y_0 + y_1 + y_2 + y_3 + y_4 + y_5 + y_6
   + y_7 + y_8 + y_9 = 1
 Coupling_0_0: x_0_1 + x_0_2 + x_0_3 + x_0_4 + x_0_5 + x_0_6 + x_0_7
   + x_0_8 + x_0_9 - y_2 - y_6 - y_7 - y_9 <= 0
 Coupling_1_0: - y_2 - y_5 - y_7 - y_8 - y_9 <= 0
 Coupling_2_0: x_0_1 + x_0_2 + x_0_3 + x_0_4 + x_0_5 + x_0_6 + x_0_7
   + x_0_8 + x_0_9 - y_3 - y_5 - y_6 - y_9 <= 0
 Coupling_3_0: - y_4 - y_6 - y_8 <= 0
 Coupling_4_0: x_0_1 + x_0_2 + x_0_3 + x_0_4 + x_0_5 + x_0_6 + x_0_7
   + x_0_8 + x_0_9 - y_4 - y_5 - y_7 - y_8 <= 0
 Coupling_0_1: - y_2 - y_6 - y_7 - y_9 <= 0
 Coupling_1_1: x_1_1 + x_1_3 + x_1_5 + x_1_6 + x_1_8 + x_1_9 - y_2 - y_5
   - y_7 - y_8 - y_9 <= 0
 Coupling_2_1: x_1_1 + x_1_3 + x_1_5 + x_1_6 + x_1_8 + x_1_9 - y_3 - y_5
   - y_6 - y_9 <= 0
 Coupling_3_1: x_1_1 + x_1_3 + x_1_5 + x_1_6 + x_1_8 + x_1_9 - y_4 - y_6
   - y_8 <= 0
 Coupling_4_1: - y_4 - y_5 - y_7 - y_8 <= 0
Bounds
 x_0_0 <= 1
 x_0_1 <= 1
 x_0_2 <= 1
 x_0_3 <= 1
 x_0_4 <= 1
 x_0_5 <= 1
 x_0_6 <= 1
 x_0_7 <= 1
 x_0_8 <= 1
 x_0_9 <= 1
 x_1_0 <= 1
 x_1_1 <= 1
 x_1_2 <= 1
 x_1_3 <= 1
 x_1_4 <= 1
 x_1_5 <= 1
 x_1_6 <= 1
 x_1_7 <= 1
 x_1_8 <= 1
 x_1_9 <= 1
 y_0 <= 1
 y_1 <= 1
 y_2 <= 1
 y_3 <= 1
 y_4 <= 1
 y_5 <= 1
 y_6 <= 1
 y_7 <= 1
 y_8 <= 1
 y_9 <= 1
End
